32      4       
12      16      15      12      
0       0       0       0       0       1       2       
9       0       13      15      0       1       3       
4       3       12      0       0       2       4       8       
5       7       0       0       9       1       5       
6       10      0       0       2       2       6       7       
4       0       12      12      0       2       9       12      
5       12      0       0       12      1       10      
10      0       15      0       12      1       9       
4       5       0       0       10      2       11      13      
3       12      3       0       0       2       11      13      
4       12      14      0       0       3       14      15      17      
7       12      0       0       12      3       14      15      17      
5       0       14      0       12      1       14      
2       0       16      0       12      3       16      18      24      
5       0       0       15      12      2       16      24      
3       0       10      15      0       3       19      20      22      
10      9       0       15      0       3       19      20      23      
5       0       0       5       3       3       20      22      23      
10      12      0       2       0       1       21      
5       0       0       15      11      1       25      
8       0       16      0       12      1       25      
5       0       15      15      0       1       25      
5       0       16      0       12      1       25      
3       12      0       0       1       1       25      
1       0       16      4       0       2       26      27      
1       11      0       9       0       2       28      29      
4       12      16      0       0       1       28      
2       8       0       15      0       2       30      31      
9       0       0       15      12      1       30      
6       0       4       13      0       1       32      
8       7       0       15      0       1       32      
0       0       0       0       0       0       
